
 * This feff6 input file was generated by Atoms 3.0.1
 * Atoms written by and copyright (c) Bruce Ravel, 1998-2001

 * -- * -- * -- * -- * -- * -- * -- * -- * -- * -- * -- * -- * -- * 
 *   total mu*x=1:     4.06 microns,  unit edge step:     4.73 microns
 *   specific gravity =  8.971
 * -- * -- * -- * -- * -- * -- * -- * -- * -- * -- * -- * -- * -- * 
 *   Normalization correction:    0.00046 ang^2
 * -- * -- * -- * -- * -- * -- * -- * -- * -- * -- * -- * -- * -- * 

 * -----------------------------------------------------------------
 * The following crystallographic data were used:
 *
 * title	Copper example
 * space = F m -3 m
 * a =	  3.610	b =	  3.610	c =	  3.610
 * alpha =	 90.0	beta =	 90.0	gamma =	 90.0
 * core =	Cu	edge =	K
 * atoms
 * ! elem   x          y          z       tag        occ
 *   Cu    0.00000    0.00000    0.00000  Cu            1.00000
 * -----------------------------------------------------------------


 TITLE Copper example

 HOLE 1   1.0   *  Cu K edge  (8979.0 eV), second number is S0^2

 *         mphase,mpath,mfeff,mchi
 CONTROL   1      1     1     1
 PRINT     1      0     0     0

 RMAX        5.0

 *CRITERIA     curved   plane
 *DEBYE        temp     debye-temp
 NLEG         4

 POTENTIALS
 *    ipot   Z  element
        0   29   Cu        
        1   29   Cu        

 ATOMS                          * this list contains 43 atoms
 *   x          y          z      ipot  tag              distance
    0.00000    0.00000    0.00000  0 Cu              0.00000
    1.80500    1.80500    0.00000  1 Cu_1            2.55266
   -1.80500    1.80500    0.00000  1 Cu_1            2.55266
    1.80500   -1.80500    0.00000  1 Cu_1            2.55266
   -1.80500   -1.80500    0.00000  1 Cu_1            2.55266
    1.80500    0.00000    1.80500  1 Cu_1            2.55266
   -1.80500    0.00000    1.80500  1 Cu_1            2.55266
    0.00000    1.80500    1.80500  1 Cu_1            2.55266
    0.00000   -1.80500    1.80500  1 Cu_1            2.55266
    1.80500    0.00000   -1.80500  1 Cu_1            2.55266
   -1.80500    0.00000   -1.80500  1 Cu_1            2.55266
    0.00000    1.80500   -1.80500  1 Cu_1            2.55266
    0.00000   -1.80500   -1.80500  1 Cu_1            2.55266
    3.61000    0.00000    0.00000  1 Cu_2            3.61000
   -3.61000    0.00000    0.00000  1 Cu_2            3.61000
    0.00000    3.61000    0.00000  1 Cu_2            3.61000
    0.00000   -3.61000    0.00000  1 Cu_2            3.61000
    0.00000    0.00000    3.61000  1 Cu_2            3.61000
    0.00000    0.00000   -3.61000  1 Cu_2            3.61000
    3.61000    1.80500    1.80500  1 Cu_3            4.42133
   -3.61000    1.80500    1.80500  1 Cu_3            4.42133
    1.80500    3.61000    1.80500  1 Cu_3            4.42133
   -1.80500    3.61000    1.80500  1 Cu_3            4.42133
    3.61000   -1.80500    1.80500  1 Cu_3            4.42133
   -3.61000   -1.80500    1.80500  1 Cu_3            4.42133
    1.80500   -3.61000    1.80500  1 Cu_3            4.42133
   -1.80500   -3.61000    1.80500  1 Cu_3            4.42133
    1.80500    1.80500    3.61000  1 Cu_3            4.42133
   -1.80500    1.80500    3.61000  1 Cu_3            4.42133
    1.80500   -1.80500    3.61000  1 Cu_3            4.42133
   -1.80500   -1.80500    3.61000  1 Cu_3            4.42133
    3.61000    1.80500   -1.80500  1 Cu_3            4.42133
   -3.61000    1.80500   -1.80500  1 Cu_3            4.42133
    1.80500    3.61000   -1.80500  1 Cu_3            4.42133
   -1.80500    3.61000   -1.80500  1 Cu_3            4.42133
    3.61000   -1.80500   -1.80500  1 Cu_3            4.42133
   -3.61000   -1.80500   -1.80500  1 Cu_3            4.42133
    1.80500   -3.61000   -1.80500  1 Cu_3            4.42133
   -1.80500   -3.61000   -1.80500  1 Cu_3            4.42133
    1.80500    1.80500   -3.61000  1 Cu_3            4.42133
   -1.80500    1.80500   -3.61000  1 Cu_3            4.42133
    1.80500   -1.80500   -3.61000  1 Cu_3            4.42133
   -1.80500   -1.80500   -3.61000  1 Cu_3            4.42133
 END
